
  26    0


   0  13 2 3 4 5 6 7 9 10 11 12 13 24 25 
   5   4 17 15 14 8 
   6   4 20 17 16 14 
   9   4 23 18 17 14 
   3   3 20 19 14 
  10   3 22 21 14 
   7   2 15 14 
   6   1 16 
   1   1 19 
   7   1 18 
   8   1 16 
   7   1 15 
   3   1 15 
   8   1 26
   5   1 26
   8   1 26
   5   1 26
  10   1 26
   3   1 26
   5   1 26
   5   1 26
   2   1 26
  10   1 26
   9   1 26
   7   1 26
   0   0 
